64 51 76 85 84 56 66 
95 63 33 28 27 29 30 31 71 94 96 93 
82 12 16 15 11 9 87 97 10 13 17 60 
65 52 99 90 
14 47 45 5 2 7 79 73 78 53 57 86 74 58 77 25 48 
72 42 39 36 40 38 41 81 68 55 
92 67 62 50 34 32 26 89 91 80 
61 44 43 35 37 54 
69 98 88 6 8 46 3 1 4 100 70 
83 59 75 23 21 18 19 49 22 20 24 
